2 100 531 120
0 40.0 50.0 0.0 0.0 0 240
2 25.0 85.0 10.0 20.0 0 191 1 5
3 22.0 75.0 10.0 30.0 0 199 2 5
4 22.0 85.0 10.0 10.0 0 190 3 5
5 20.0 80.0 10.0 40.0 141 171 4 5
6 20.0 85.0 10.0 20.0 0 189 5 5
7 18.0 75.0 10.0 20.0 0 196 6 10
8 15.0 75.0 10.0 20.0 0 194 7 10
9 15.0 80.0 10.0 10.0 91 121 8 10
10 10.0 35.0 10.0 20.0 91 121 9 10
11 10.0 40.0 10.0 30.0 0 198 10 10
12 8.0 40.0 10.0 40.0 59 89 11 15
13 8.0 45.0 10.0 20.0 0 197 12 15
14 5.0 35.0 10.0 10.0 142 172 13 15
15 5.0 45.0 10.0 10.0 0 194 14 15
16 2.0 40.0 10.0 20.0 58 88 15 15
17 0.0 40.0 10.0 20.0 0 188 16 5
18 0.0 45.0 10.0 20.0 0 189 17 5
19 44.0 5.0 10.0 20.0 0 184 18 5
20 42.0 10.0 10.0 40.0 0 189 19 5
21 42.0 15.0 10.0 10.0 0 194 20 5
22 40.0 5.0 10.0 10.0 0 185 21 10
23 40.0 15.0 10.0 40.0 0 195 22 10
24 38.0 5.0 10.0 30.0 65 95 23 10
25 38.0 15.0 10.0 10.0 0 194 24 10
26 35.0 5.0 10.0 20.0 154 184 25 10
27 95.0 30.0 10.0 30.0 0 171 26 15
28 95.0 35.0 10.0 20.0 0 172 27 15
29 92.0 30.0 10.0 10.0 0 174 28 15
30 90.0 35.0 10.0 10.0 0 177 29 15
31 88.0 30.0 10.0 10.0 0 178 30 15
32 88.0 35.0 10.0 20.0 0 179 31 5
33 87.0 30.0 10.0 10.0 0 178 32 5
34 85.0 25.0 10.0 10.0 0 178 33 5
35 85.0 35.0 10.0 30.0 0 182 34 5
36 67.0 85.0 10.0 20.0 0 185 35 5
37 65.0 85.0 10.0 40.0 0 186 36 10
38 65.0 82.0 10.0 10.0 0 189 37 10
39 62.0 80.0 10.0 30.0 75 105 38 10
40 60.0 80.0 10.0 10.0 0 193 39 10
41 60.0 85.0 10.0 30.0 0 189 40 10
42 58.0 75.0 10.0 20.0 0 199 41 15
43 55.0 80.0 10.0 10.0 0 196 42 15
44 55.0 85.0 10.0 20.0 0 191 43 15
45 55.0 82.0 10.0 10.0 64 94 44 15
46 20.0 82.0 10.0 10.0 0 192 45 15
47 18.0 80.0 10.0 10.0 0 192 46 5
48 2.0 45.0 10.0 10.0 0 191 47 5
49 42.0 5.0 10.0 10.0 0 184 48 5
50 42.0 12.0 10.0 10.0 0 191 49 5
51 72.0 35.0 10.0 30.0 0 194 50 5
52 55.0 20.0 10.0 19.0 0 196 51 10
53 25.0 30.0 10.0 3.0 0 205 52 10
54 20.0 50.0 10.0 5.0 91 121 53 10
55 55.0 60.0 10.0 16.0 0 211 54 10
56 30.0 60.0 10.0 16.0 140 170 55 10
57 50.0 35.0 10.0 19.0 0 211 56 15
58 30.0 25.0 10.0 23.0 0 203 57 15
59 15.0 10.0 10.0 20.0 152 182 58 15
60 10.0 20.0 10.0 19.0 0 187 59 15
61 15.0 60.0 10.0 17.0 0 203 60 15
62 45.0 65.0 10.0 9.0 0 214 61 5
63 65.0 35.0 10.0 3.0 52 82 62 5
64 65.0 20.0 10.0 6.0 0 190 63 5
65 45.0 30.0 10.0 17.0 0 209 64 5
66 35.0 40.0 10.0 16.0 0 218 65 5
67 41.0 37.0 10.0 16.0 0 216 66 10
68 64.0 42.0 10.0 9.0 70 100 67 10
69 40.0 60.0 10.0 21.0 0 220 68 10
70 31.0 52.0 10.0 27.0 41 71 69 10
71 35.0 69.0 10.0 23.0 0 210 70 10
72 65.0 55.0 10.0 14.0 0 204 71 15
73 63.0 65.0 10.0 8.0 0 202 72 15
74 2.0 60.0 10.0 5.0 0 190 73 15
75 20.0 20.0 10.0 8.0 141 171 74 15
76 5.0 5.0 10.0 16.0 0 172 75 15
77 60.0 12.0 10.0 31.0 75 105 76 5
78 23.0 3.0 10.0 7.0 150 180 77 5
79 8.0 56.0 10.0 27.0 0 197 78 5
80 6.0 68.0 10.0 30.0 89 119 79 5
81 47.0 47.0 10.0 13.0 0 222 80 5
82 49.0 58.0 10.0 10.0 0 217 81 10
83 27.0 43.0 10.0 9.0 0 215 82 10
84 37.0 31.0 10.0 14.0 0 210 83 10
85 57.0 29.0 10.0 18.0 96 126 84 10
86 63.0 23.0 10.0 2.0 0 194 85 10
87 21.0 24.0 10.0 28.0 0 197 86 15
88 12.0 24.0 10.0 13.0 90 120 87 15
89 24.0 58.0 10.0 19.0 0 212 88 15
90 67.0 5.0 10.0 25.0 0 177 89 15
91 37.0 47.0 10.0 6.0 0 225 90 15
92 49.0 42.0 10.0 13.0 0 217 91 5
93 53.0 43.0 10.0 14.0 14 44 92 5
94 61.0 52.0 10.0 3.0 0 208 93 5
95 57.0 48.0 10.0 23.0 0 212 94 5
96 56.0 37.0 10.0 6.0 0 209 95 5
97 55.0 54.0 10.0 26.0 0 214 96 10
98 4.0 18.0 10.0 35.0 0 181 97 10
99 26.0 52.0 10.0 9.0 0 215 98 10
100 26.0 35.0 10.0 15.0 77 107 99 10
101 31.0 67.0 10.0 3.0 180 210 100 10